INPUT_PARAMETERS
suffix    autotest
calculation    scf
basis_type    lcao
ecutwfc    20
gamma_only    0

nspin    4
noncolin 1
#nbands    28
scf_thr    1.0e-6
scf_nmax    50
out_chg    0
smearing_method    gaussian
smearing_sigma    0.01
mixing_type    broyden
mixing_beta    0.4
ks_solver    genelpa
symmetry    0


# DeltaSpin parameters
sc_mag_switch    1
sc_thr    1e-4
nsc    100
nsc_min    2
alpha_trial    0.01
sccut    3.0
sc_scf_thr    1e-3
#sc_lambda_strategy    linear_scan

pseudo_dir    ../../PP_ORB
orbital_dir    ../../PP_ORB
