INPUT_PARAMETERS
suffix    autotest
calculation    scf
basis_type    pw
ecutwfc    50
gamma_only    0
nspin    2
nbands    28
scf_thr    1.0e-6
scf_nmax    100
out_chg    0
smearing_method    gaussian
smearing_sigma    0.01
mixing_type    broyden
mixing_beta    0.4
ks_solver    dav_subspace
symmetry    0

pseudo_dir    ../../PP_ORB
pw_seed 1
