ATOMIC_SPECIES
Fe 1.000 Fe.upf

LATTICE_CONSTANT
8.190

LATTICE_VECTORS
 1.00    0.50     0.50
 0.50    1.00     0.50
 0.50    0.50     1.00
ATOMIC_POSITIONS
Direct

Fe
0.0
2
0.00   0.00   0.00   mag  2.0
0.51   0.51   0.51   mag  -2.0
