INPUT_PARAMETERS
suffix    autotest
calculation    scf
basis_type    lcao
ecutwfc    5
gamma_only    0
init_chg    file
read_file_dir    ./
noncolin    1
#nbands    28
scf_thr    1.0e-6
scf_nmax    1
#out_chg    1
out_band    1
smearing_method    gaussian
smearing_sigma    0.01
mixing_type    broyden
mixing_beta    0.4
ks_solver   scalapack_gvx #genelpa
symmetry    0

# DFT+U parameters
dft_plus_u    1
orbital_corr    2
hubbard_u    5.0
onsite_radius   3.0

pseudo_dir    ../../PP_ORB
orbital_dir    ../../PP_ORB
