INPUT_PARAMETERS
suffix    autotest
calculation    scf
basis_type    pw
ecutwfc    20
gamma_only    0

noncolin    1
scf_thr    1.0e-6
scf_nmax    50
out_chg    0
smearing_method    gaussian
smearing_sigma    0.01
mixing_type    broyden
mixing_beta    0.4
ks_solver    dav_subspace
symmetry    0
kpar    2

# DeltaSpin parameters -- nsc=1: read lambda only, skip iterative optimization
sc_mag_switch    1
sc_thr    1e-4
nsc    1
nsc_min    1
alpha_trial    0.01
sccut    3.0
sc_scf_thr    10

pseudo_dir    ../../PP_ORB
orbital_dir    ../../PP_ORB

pw_seed 1
