INPUT_PARAMETERS 
#Parameters (1.General)
suffix            autotest
calculation       scf
dft_functional    lda

nbands 8
symmetry          0
pseudo_dir        ../../PP_ORB
orbital_dir       ../../PP_ORB

#Parameters (2.Iteration)
ecutwfc           20
scf_thr           1e-9
scf_nmax 200

#Parameters (3.Basis)
basis_type        lcao
gamma_only        1

#Parameters (4.Smearing)
smearing_method   gaussian
smearing_sigma    0.02

#Parameters (5.Mixing)
mixing_type       broyden
mixing_beta 0.2

cal_force         1
cal_stress        1
deepks_scf        1
deepks_out_labels 1
deepks_model      ../Model_ProjOrb/model_nspin2_demo.ptg
nspin 2
deepks_bandgap 1
nupdown 2
