ATOMIC_SPECIES
O 1.000 O_ONCV_PBE-1.0.upf
Fe 1.000 Fe.upf

NUMERICAL_ORBITAL
8_O_gga_100Ry_7au_2s2p1d.orb
Fe_gga_6au_100Ry_4s2p2d1f.orb

LATTICE_CONSTANT
8.190

LATTICE_VECTORS
 1.00    0.50     0.50
 0.50    1.00     0.50
 0.50    0.50     1.00
ATOMIC_POSITIONS
Direct

O
0.0
2
0.50   0.00   0.00
0.00   0.50   0.50

Fe
0.0
2
0.00   0.00   0.00   mag  2.0
0.50   0.50   0.50   mag  -2.0