INPUT_PARAMETERS
#Parameters (System)
suffix                          autotest
calculation                     scf
nspin                           2
pseudo_dir                      ../../PP_ORB
orbital_dir                     ../../PP_ORB

#Parameters (PW)
ecutwfc                         60
basis_type                      pw

#Parameters (SCF)
scf_thr                         1.0e-8
scf_nmax                        100
smearing_method                 gaussian
smearing_sigma                  0.01
mixing_type                     broyden
mixing_beta                     0.2

#Parameters (Hybrid Functional)
dft_functional                  pbe

#Parameters (Other)
symmetry                        -1
init_wfc                        random
# device                          cpu
# exx_thr_type                    energy
# exx_ene_thr                     0.5
pw_seed 1
exxace false
exx_hybrid_step 1
