INPUT_PARAMETERS
suffix    autotest
calculation    scf
basis_type    pw
ecutwfc    20
gamma_only    0
noncolin    1
#nbands    40
scf_thr    1.0e-6
scf_nmax    50
out_chg    0
smearing_method    gaussian
smearing_sigma    0.01
mixing_type    broyden
mixing_beta    0.4
ks_solver    dav_subspace
symmetry    0

kpar    1
pseudo_dir    ../../PP_ORB
pw_seed 1
