INPUT_PARAMETERS
suffix         autotest
#nbands   40 

calculation    scf
ecutwfc        20
scf_thr            1.0e-8
scf_nmax          50
out_chg     0

smearing_method       fd
smearing_sigma          0.1

mixing_type    broyden


ks_solver     pexsi
pexsi_temp    0.1
basis_type    lcao
gamma_only    1
symmetry      0
nspin         2
pseudo_dir	../../PP_ORB
orbital_dir	../../PP_ORB
