ATOMIC_SPECIES
Al 26.981539 al.lda.lps blps
H  1.008  H.pz-vbc.UPF 1/r

LATTICE_CONSTANT
30.613575  // add lattice constant

LATTICE_VECTORS
1.000000000000    0.000000000000    0.000000000000
0.000000000000    1.000000000000    0.000000000000
0.000000000000    0.000000000000    1.000000000000

ATOMIC_POSITIONS
Direct

Al
0
256
0	0	0	0	0	0
0	0.125	0.125	0	0	0
0.125	0	0.125	0	0	0
0.125	0.125	0	0	0	0
0	0	0.25	0	0	0
0	0.125	0.375	0	0	0
0.125	0	0.375	0	0	0
0.125	0.125	0.25	0	0	0
0	0	0.5	0	0	0
0	0.125	0.625	0	0	0
0.125	0	0.625	0	0	0
0.125	0.125	0.5	0	0	0
0	0	0.75	0	0	0
0	0.125	0.875	0	0	0
0.125	0	0.875	0	0	0
0.125	0.125	0.75	0	0	0
0	0.25	0	0	0	0
0	0.375	0.125	0	0	0
0.125	0.25	0.125	0	0	0
0.125	0.375	0	0	0	0
0	0.25	0.25	0	0	0
0	0.375	0.375	0	0	0
0.125	0.25	0.375	0	0	0
0.125	0.375	0.25	0	0	0
0	0.25	0.5	0	0	0
0	0.375	0.625	0	0	0
0.125	0.25	0.625	0	0	0
0.125	0.375	0.5	0	0	0
0	0.25	0.75	0	0	0
0	0.375	0.875	0	0	0
0.125	0.25	0.875	0	0	0
0.125	0.375	0.75	0	0	0
0.25	0	0	0	0	0
0.25	0.125	0.125	0	0	0
0.375	0	0.125	0	0	0
0.375	0.125	0	0	0	0
0.25	0	0.25	0	0	0
0.25	0.125	0.375	0	0	0
0.375	0	0.375	0	0	0
0.375	0.125	0.25	0	0	0
0.25	0	0.5	0	0	0
0.25	0.125	0.625	0	0	0
0.375	0	0.625	0	0	0
0.375	0.125	0.5	0	0	0
0.25	0	0.75	0	0	0
0.25	0.125	0.875	0	0	0
0.375	0	0.875	0	0	0
0.375	0.125	0.75	0	0	0
0.25	0.25	0	0	0	0
0.25	0.375	0.125	0	0	0
0.375	0.25	0.125	0	0	0
0.375	0.375	0	0	0	0
0.25	0.25	0.25	0	0	0
0.25	0.375	0.375	0	0	0
0.375	0.25	0.375	0	0	0
0.375	0.375	0.25	0	0	0
0.25	0.25	0.5	0	0	0
0.25	0.375	0.625	0	0	0
0.375	0.25	0.625	0	0	0
0.375	0.375	0.5	0	0	0
0.25	0.25	0.75	0	0	0
0.25	0.375	0.875	0	0	0
0.375	0.25	0.875	0	0	0
0.375	0.375	0.75	0	0	0
0.5	0	0	0	0	0
0.5	0.125	0.125	0	0	0
0.625	0	0.125	0	0	0
0.625	0.125	0	0	0	0
0.5	0	0.25	0	0	0
0.5	0.125	0.375	0	0	0
0.625	0	0.375	0	0	0
0.625	0.125	0.25	0	0	0
0.5	0	0.5	0	0	0
0.5	0.125	0.625	0	0	0
0.625	0	0.625	0	0	0
0.625	0.125	0.5	0	0	0
0.5	0	0.75	0	0	0
0.5	0.125	0.875	0	0	0
0.625	0	0.875	0	0	0
0.625	0.125	0.75	0	0	0
0.5	0.25	0	0	0	0
0.5	0.375	0.125	0	0	0
0.625	0.25	0.125	0	0	0
0.625	0.375	0	0	0	0
0.5	0.25	0.25	0	0	0
0.5	0.375	0.375	0	0	0
0.625	0.25	0.375	0	0	0
0.625	0.375	0.25	0	0	0
0.5	0.25	0.5	0	0	0
0.5	0.375	0.625	0	0	0
0.625	0.25	0.625	0	0	0
0.625	0.375	0.5	0	0	0
0.5	0.25	0.75	0	0	0
0.5	0.375	0.875	0	0	0
0.625	0.25	0.875	0	0	0
0.625	0.375	0.75	0	0	0
0.75	0	0	0	0	0
0.75	0.125	0.125	0	0	0
0.875	0	0.125	0	0	0
0.875	0.125	0	0	0	0
0.75	0	0.25	0	0	0
0.75	0.125	0.375	0	0	0
0.875	0	0.375	0	0	0
0.875	0.125	0.25	0	0	0
0.75	0	0.5	0	0	0
0.75	0.125	0.625	0	0	0
0.875	0	0.625	0	0	0
0.875	0.125	0.5	0	0	0
0.75	0	0.75	0	0	0
0.75	0.125	0.875	0	0	0
0.875	0	0.875	0	0	0
0.875	0.125	0.75	0	0	0
0.75	0.25	0	0	0	0
0.75	0.375	0.125	0	0	0
0.875	0.25	0.125	0	0	0
0.875	0.375	0	0	0	0
0.75	0.25	0.25	0	0	0
0.75	0.375	0.375	0	0	0
0.875	0.25	0.375	0	0	0
0.875	0.375	0.25	0	0	0
0.75	0.25	0.5	0	0	0
0.75	0.375	0.625	0	0	0
0.875	0.25	0.625	0	0	0
0.875	0.375	0.5	0	0	0
0.75	0.25	0.75	0	0	0
0.75	0.375	0.875	0	0	0
0.875	0.25	0.875	0	0	0
0.875	0.375	0.75	0	0	0
0	0.5	0	0	0	0
0	0.625	0.125	0	0	0
0.125	0.5	0.125	0	0	0
0.125	0.625	0	0	0	0
0	0.5	0.25	0	0	0
0	0.625	0.375	0	0	0
0.125	0.5	0.375	0	0	0
0.125	0.625	0.25	0	0	0
0	0.5	0.5	0	0	0
0	0.625	0.625	0	0	0
0.125	0.5	0.625	0	0	0
0.125	0.625	0.5	0	0	0
0	0.5	0.75	0	0	0
0	0.625	0.875	0	0	0
0.125	0.5	0.875	0	0	0
0.125	0.625	0.75	0	0	0
0	0.75	0	0	0	0
0	0.875	0.125	0	0	0
0.125	0.75	0.125	0	0	0
0.125	0.875	0	0	0	0
0	0.75	0.25	0	0	0
0	0.875	0.375	0	0	0
0.125	0.75	0.375	0	0	0
0.125	0.875	0.25	0	0	0
0	0.75	0.5	0	0	0
0	0.875	0.625	0	0	0
0.125	0.75	0.625	0	0	0
0.125	0.875	0.5	0	0	0
0	0.75	0.75	0	0	0
0	0.875	0.875	0	0	0
0.125	0.75	0.875	0	0	0
0.125	0.875	0.75	0	0	0
0.25	0.5	0	0	0	0
0.25	0.625	0.125	0	0	0
0.375	0.5	0.125	0	0	0
0.375	0.625	0	0	0	0
0.25	0.5	0.25	0	0	0
0.25	0.625	0.375	0	0	0
0.375	0.5	0.375	0	0	0
0.375	0.625	0.25	0	0	0
0.25	0.5	0.5	0	0	0
0.25	0.625	0.625	0	0	0
0.375	0.5	0.625	0	0	0
0.375	0.625	0.5	0	0	0
0.25	0.5	0.75	0	0	0
0.25	0.625	0.875	0	0	0
0.375	0.5	0.875	0	0	0
0.375	0.625	0.75	0	0	0
0.25	0.75	0	0	0	0
0.25	0.875	0.125	0	0	0
0.375	0.75	0.125	0	0	0
0.375	0.875	0	0	0	0
0.25	0.75	0.25	0	0	0
0.25	0.875	0.375	0	0	0
0.375	0.75	0.375	0	0	0
0.375	0.875	0.25	0	0	0
0.25	0.75	0.5	0	0	0
0.25	0.875	0.625	0	0	0
0.375	0.75	0.625	0	0	0
0.375	0.875	0.5	0	0	0
0.25	0.75	0.75	0	0	0
0.25	0.875	0.875	0	0	0
0.375	0.75	0.875	0	0	0
0.375	0.875	0.75	0	0	0
0.5	0.5	0	0	0	0
0.5	0.625	0.125	0	0	0
0.625	0.5	0.125	0	0	0
0.625	0.625	0	0	0	0
0.5	0.5	0.25	0	0	0
0.5	0.625	0.375	0	0	0
0.625	0.5	0.375	0	0	0
0.625	0.625	0.25	0	0	0
0.5	0.5	0.5	0	0	0
0.5	0.625	0.625	0	0	0
0.625	0.5	0.625	0	0	0
0.625	0.625	0.5	0	0	0
0.5	0.5	0.75	0	0	0
0.5	0.625	0.875	0	0	0
0.625	0.5	0.875	0	0	0
0.625	0.625	0.75	0	0	0
0.5	0.75	0	0	0	0
0.5	0.875	0.125	0	0	0
0.625	0.75	0.125	0	0	0
0.625	0.875	0	0	0	0
0.5	0.75	0.25	0	0	0
0.5	0.875	0.375	0	0	0
0.625	0.75	0.375	0	0	0
0.625	0.875	0.25	0	0	0
0.5	0.75	0.5	0	0	0
0.5	0.875	0.625	0	0	0
0.625	0.75	0.625	0	0	0
0.625	0.875	0.5	0	0	0
0.5	0.75	0.75	0	0	0
0.5	0.875	0.875	0	0	0
0.625	0.75	0.875	0	0	0
0.625	0.875	0.75	0	0	0
0.75	0.5	0	0	0	0
0.75	0.625	0.125	0	0	0
0.875	0.5	0.125	0	0	0
0.875	0.625	0	0	0	0
0.75	0.5	0.25	0	0	0
0.75	0.625	0.375	0	0	0
0.875	0.5	0.375	0	0	0
0.875	0.625	0.25	0	0	0
0.75	0.5	0.5	0	0	0
0.75	0.625	0.625	0	0	0
0.875	0.5	0.625	0	0	0
0.875	0.625	0.5	0	0	0
0.75	0.5	0.75	0	0	0
0.75	0.625	0.875	0	0	0
0.875	0.5	0.875	0	0	0
0.875	0.625	0.75	0	0	0
0.75	0.75	0	0	0	0
0.75	0.875	0.125	0	0	0
0.875	0.75	0.125	0	0	0
0.875	0.875	0	0	0	0
0.75	0.75	0.25	0	0	0
0.75	0.875	0.375	0	0	0
0.875	0.75	0.375	0	0	0
0.875	0.875	0.25	0	0	0
0.75	0.75	0.5	0	0	0
0.75	0.875	0.625	0	0	0
0.875	0.75	0.625	0	0	0
0.875	0.875	0.5	0	0	0
0.75	0.75	0.75	0	0	0
0.75	0.875	0.875	0	0	0
0.875	0.75	0.875	0	0	0
0.875	0.875	0.75	0	0	0

H
0
1
0.1875	0.1875	0.50	m	0	0	1	v	0	0	1.3
