INPUT_PARAMETERS
pseudo_dir              ../../../tests/PP_ORB
orbital_dir             ../../../tests/PP_ORB
nbands                  5
nspin                   1
calculation             scf
basis_type              pw
ks_solver               dav
ecutwfc                 100
scf_thr                 1e-8
scf_nmax                100
gamma_only              0
symmetry                -1
smearing_method         gauss
mixing_type             broyden
mixing_beta             0.1

dft_functional          pbe0

# exx_hybrid_alpha        0.0001
