INPUT_PARAMETERS

calculation         scf
basis_type          lcao
nspin               2
symmetry            1
gamma_only          0

ecutwfc             60
scf_thr             1e-06
scf_nmax            100

ks_solver           genelpa
smearing_method     gaussian
smearing_sigma      0.005

mixing_type         broyden
mixing_beta         0.2
mixing_beta_mag     0.2

out_mul             1
out_chg             0
#out_hsr_npz        1
#out_dm_npz         1

pseudo_dir          ../../../tests/PP_ORB/
orbital_dir         ../../../tests/PP_ORB/
