ATOMIC_SPECIES
Co  58.933194     Co_ONCV_PBE-1.2.upf
Nb  92.90637      Nb_ONCV_PBE-1.2.upf
Os  190.23        Os_ONCV_PBE-1.2.upf

NUMERICAL_ORBITAL
Co_gga_9au_60Ry_4s2p2d1f.orb
Nb_gga_9au_60Ry_4s2p2d1f.orb
Os_gga_9au_60Ry_4s2p2d1f.orb

LATTICE_CONSTANT
1.889726

LATTICE_VECTORS
4.8297140000   0.0000000000   0.0000000000   
-2.414854000   4.1826560000   0.0000000000   
0.0000000000   0.0000000000   8.0678760000   

ATOMIC_POSITIONS
Direct

Co
0.0000000000
6
0.1712410000   0.8287590000   0.7500000000   1   1   1    magmom 0.298
0.8287600000   0.6575140000   0.2500000000   1   1   1    magmom 0.282
0.3424860000   0.1712400000   0.2500000000   1   1   1    magmom 0.314
0.6575140000   0.8287600000   0.7500000000   1   1   1    magmom 0.314
0.1712400000   0.3424860000   0.7500000000   1   1   1    magmom 0.282
0.8287590000   0.1712410000   0.2500000000   1   1   1    magmom 0.298
Nb
0.0000000000
4
0.6666670000   0.3333330000   0.9274990000   1   1   1    magmom 0.053
0.3333330000   0.6666670000   0.4274990000   1   1   1    magmom 0.055
0.6666670000   0.3333330000   0.5725010000   1   1   1    magmom 0.055
0.3333330000   0.6666670000   0.0725010000   1   1   1    magmom 0.053
Os
0.0000000000
2
0.0000000000   0.0000000000   0.5000000000   1   1   1    magmom 0.033
0.0000000000   0.0000000000   0.0000000000   1   1   1    magmom 0.027
