INPUT_PARAMETERS
suffix    autotest
calculation    scf
basis_type    pw
ecutwfc    50
gamma_only    0

nspin    2
scf_thr    1.0e-6
scf_nmax    100
out_chg    0
smearing_method    gaussian
smearing_sigma    0.01
mixing_type    broyden
mixing_beta    0.4
ks_solver    dav_subspace
symmetry    0

# DFT+U parameters
dft_plus_u    1
orbital_corr    2 -1
hubbard_u    5.0 0
onsite_radius   3.0

pseudo_dir    ../../PP_ORB
orbital_dir    ../../PP_ORB
pw_seed 1